
  32    1
  10

   0   0   4 2 3 4 6 
   5   1   3 8 7 5 
   3   6   2 13 5 
   8   5   6 16 14 13 11 10 9 
   4   2   5 16 14 11 10 9 
   9   3   3 14 13 7 
  10   4   3 16 12 11 
   2   7   2 13 9 
   2   2   2 15 12 
   3   2   2 15 12 
   3   3   3 18 17 15 
   8   4   3 19 18 17 
   7   2   3 19 18 17 
   1   7   3 19 18 17 
   3   4   4 22 21 20 19 
   5   2   4 22 21 20 19 
   7   6   3 24 22 21 
   6   5   3 31 25 20 
   1   3   4 31 30 29 24 
   3   1   2 24 23 
   4   5   5 31 30 28 27 26 
   2   4   4 30 29 27 25 
   5   4   4 29 28 27 26 
   3   2   3 28 27 26 
   8   6   1 26 
   8   3   1 32
   8   6   1 32
   6   4   1 32
   1   7   1 32
   8   4   1 32
   5   6   1 32
   0   0   0 
